NAME /Users/henri/Research/solvers/instances/idol-instances/robust/collection/cbp_Subramanyam_et_al_2020/CapBud_N30_15/models/uncertain_technology_matrix/
ROWS
 N  OBJ
 L  capacity
 L  c_6490
 L  c_6491
 L  c_6492
 L  c_6493
 L  c_6494
 L  c_6495
 L  c_6496
 L  c_6497
 L  c_6498
 L  c_6499
 L  c_6500
 L  c_6501
 L  c_6502
 L  c_6503
 L  c_6504
 L  c_6505
 L  c_6506
 L  c_6507
 L  c_6508
 L  c_6509
 L  c_6510
 L  c_6511
 L  c_6512
 L  c_6513
 L  c_6514
 L  c_6515
 L  c_6516
 L  c_6517
 L  c_6518
 L  c_6519
COLUMNS
    MARKER    'MARKER'                 'INTORG'
    x_0        OBJ        7.15775
    x_0        c_6490     1
    x_0        capacity   1.43155
    x_1        OBJ        5.97616
    x_1        c_6491     1
    x_1        capacity   1.19523
    x_2        OBJ        6.83935
    x_2        c_6492     1
    x_2        capacity   1.36787
    x_3        OBJ        0.375497
    x_3        c_6493     1
    x_3        capacity   0.0750995
    x_4        OBJ        7.63934
    x_4        c_6494     1
    x_4        capacity   1.52787
    x_5        OBJ        7.05074
    x_5        c_6495     1
    x_5        capacity   1.41015
    x_6        OBJ        2.18101
    x_6        c_6496     1
    x_6        capacity   0.436203
    x_7        OBJ        8.24837
    x_7        c_6497     1
    x_7        capacity   1.64967
    x_8        OBJ        1.45402
    x_8        c_6498     1
    x_8        capacity   0.290804
    x_9        OBJ        1.5514
    x_9        c_6499     1
    x_9        capacity   0.31028
    x_10       OBJ        7.91874
    x_10       c_6500     1
    x_10       capacity   1.58375
    x_11       OBJ        1.5461
    x_11       c_6501     1
    x_11       capacity   0.309219
    x_12       OBJ        8.27705
    x_12       c_6502     1
    x_12       capacity   1.65541
    x_13       OBJ        7.00657
    x_13       c_6503     1
    x_13       capacity   1.40131
    x_14       OBJ        6.41655
    x_14       c_6504     1
    x_14       capacity   1.28331
    x_15       OBJ        3.57654
    x_15       c_6505     1
    x_15       capacity   0.715309
    x_16       OBJ        6.6455
    x_16       c_6506     1
    x_16       capacity   1.3291
    x_17       OBJ        4.71559
    x_17       c_6507     1
    x_17       capacity   0.943117
    x_18       OBJ        2.85025
    x_18       c_6508     1
    x_18       capacity   0.57005
    x_19       OBJ        4.34923
    x_19       c_6509     1
    x_19       capacity   0.869845
    x_20       OBJ        2.66503
    x_20       c_6510     1
    x_20       capacity   0.533007
    x_21       OBJ        5.98532
    x_21       c_6511     1
    x_21       capacity   1.19706
    x_22       OBJ        7.80653
    x_22       c_6512     1
    x_22       capacity   1.56131
    x_23       OBJ        9.16499
    x_23       c_6513     1
    x_23       capacity   1.833
    x_24       OBJ        5.51526
    x_24       c_6514     1
    x_24       capacity   1.10305
    x_25       OBJ        0.761071
    x_25       c_6515     1
    x_25       capacity   0.152214
    x_26       OBJ        2.64719
    x_26       c_6516     1
    x_26       capacity   0.529439
    x_27       OBJ        1.55777
    x_27       c_6517     1
    x_27       capacity   0.311554
    x_28       OBJ        5.81997
    x_28       c_6518     1
    x_28       capacity   1.16399
    x_29       OBJ        8.622
    x_29       c_6519     1
    x_29       capacity   1.7244
    y_0        OBJ        5.7262
    y_0        c_6490     1
    y_0        capacity   1.43155
    y_1        OBJ        4.78093
    y_1        c_6491     1
    y_1        capacity   1.19523
    y_2        OBJ        5.47148
    y_2        c_6492     1
    y_2        capacity   1.36787
    y_3        OBJ        0.300398
    y_3        c_6493     1
    y_3        capacity   0.0750995
    y_4        OBJ        6.11147
    y_4        c_6494     1
    y_4        capacity   1.52787
    y_5        OBJ        5.64059
    y_5        c_6495     1
    y_5        capacity   1.41015
    y_6        OBJ        1.74481
    y_6        c_6496     1
    y_6        capacity   0.436203
    y_7        OBJ        6.59869
    y_7        c_6497     1
    y_7        capacity   1.64967
    y_8        OBJ        1.16322
    y_8        c_6498     1
    y_8        capacity   0.290804
    y_9        OBJ        1.24112
    y_9        c_6499     1
    y_9        capacity   0.31028
    y_10       OBJ        6.33499
    y_10       c_6500     1
    y_10       capacity   1.58375
    y_11       OBJ        1.23688
    y_11       c_6501     1
    y_11       capacity   0.309219
    y_12       OBJ        6.62164
    y_12       c_6502     1
    y_12       capacity   1.65541
    y_13       OBJ        5.60526
    y_13       c_6503     1
    y_13       capacity   1.40131
    y_14       OBJ        5.13324
    y_14       c_6504     1
    y_14       capacity   1.28331
    y_15       OBJ        2.86124
    y_15       c_6505     1
    y_15       capacity   0.715309
    y_16       OBJ        5.3164
    y_16       c_6506     1
    y_16       capacity   1.3291
    y_17       OBJ        3.77247
    y_17       c_6507     1
    y_17       capacity   0.943117
    y_18       OBJ        2.2802
    y_18       c_6508     1
    y_18       capacity   0.57005
    y_19       OBJ        3.47938
    y_19       c_6509     1
    y_19       capacity   0.869845
    y_20       OBJ        2.13203
    y_20       c_6510     1
    y_20       capacity   0.533007
    y_21       OBJ        4.78826
    y_21       c_6511     1
    y_21       capacity   1.19706
    y_22       OBJ        6.24523
    y_22       c_6512     1
    y_22       capacity   1.56131
    y_23       OBJ        7.332
    y_23       c_6513     1
    y_23       capacity   1.833
    y_24       OBJ        4.41221
    y_24       c_6514     1
    y_24       capacity   1.10305
    y_25       OBJ        0.608856
    y_25       c_6515     1
    y_25       capacity   0.152214
    y_26       OBJ        2.11776
    y_26       c_6516     1
    y_26       capacity   0.529439
    y_27       OBJ        1.24622
    y_27       c_6517     1
    y_27       capacity   0.311554
    y_28       OBJ        4.65598
    y_28       c_6518     1
    y_28       capacity   1.16399
    y_29       OBJ        6.8976
    y_29       c_6519     1
    y_29       capacity   1.7244
    MARKER    'MARKER'                 'INTEND'
RHS
    RHS       capacity   76.1604
    RHS       c_6490     1
    RHS       c_6491     1
    RHS       c_6492     1
    RHS       c_6493     1
    RHS       c_6494     1
    RHS       c_6495     1
    RHS       c_6496     1
    RHS       c_6497     1
    RHS       c_6498     1
    RHS       c_6499     1
    RHS       c_6500     1
    RHS       c_6501     1
    RHS       c_6502     1
    RHS       c_6503     1
    RHS       c_6504     1
    RHS       c_6505     1
    RHS       c_6506     1
    RHS       c_6507     1
    RHS       c_6508     1
    RHS       c_6509     1
    RHS       c_6510     1
    RHS       c_6511     1
    RHS       c_6512     1
    RHS       c_6513     1
    RHS       c_6514     1
    RHS       c_6515     1
    RHS       c_6516     1
    RHS       c_6517     1
    RHS       c_6518     1
    RHS       c_6519     1
BOUNDS
 LI BND       x_0        0
 UI BND       x_0        1
 LI BND       x_1        0
 UI BND       x_1        1
 LI BND       x_2        0
 UI BND       x_2        1
 LI BND       x_3        0
 UI BND       x_3        1
 LI BND       x_4        0
 UI BND       x_4        1
 LI BND       x_5        0
 UI BND       x_5        1
 LI BND       x_6        0
 UI BND       x_6        1
 LI BND       x_7        0
 UI BND       x_7        1
 LI BND       x_8        0
 UI BND       x_8        1
 LI BND       x_9        0
 UI BND       x_9        1
 LI BND       x_10       0
 UI BND       x_10       1
 LI BND       x_11       0
 UI BND       x_11       1
 LI BND       x_12       0
 UI BND       x_12       1
 LI BND       x_13       0
 UI BND       x_13       1
 LI BND       x_14       0
 UI BND       x_14       1
 LI BND       x_15       0
 UI BND       x_15       1
 LI BND       x_16       0
 UI BND       x_16       1
 LI BND       x_17       0
 UI BND       x_17       1
 LI BND       x_18       0
 UI BND       x_18       1
 LI BND       x_19       0
 UI BND       x_19       1
 LI BND       x_20       0
 UI BND       x_20       1
 LI BND       x_21       0
 UI BND       x_21       1
 LI BND       x_22       0
 UI BND       x_22       1
 LI BND       x_23       0
 UI BND       x_23       1
 LI BND       x_24       0
 UI BND       x_24       1
 LI BND       x_25       0
 UI BND       x_25       1
 LI BND       x_26       0
 UI BND       x_26       1
 LI BND       x_27       0
 UI BND       x_27       1
 LI BND       x_28       0
 UI BND       x_28       1
 LI BND       x_29       0
 UI BND       x_29       1
 LI BND       y_0        0
 UI BND       y_0        1
 LI BND       y_1        0
 UI BND       y_1        1
 LI BND       y_2        0
 UI BND       y_2        1
 LI BND       y_3        0
 UI BND       y_3        1
 LI BND       y_4        0
 UI BND       y_4        1
 LI BND       y_5        0
 UI BND       y_5        1
 LI BND       y_6        0
 UI BND       y_6        1
 LI BND       y_7        0
 UI BND       y_7        1
 LI BND       y_8        0
 UI BND       y_8        1
 LI BND       y_9        0
 UI BND       y_9        1
 LI BND       y_10       0
 UI BND       y_10       1
 LI BND       y_11       0
 UI BND       y_11       1
 LI BND       y_12       0
 UI BND       y_12       1
 LI BND       y_13       0
 UI BND       y_13       1
 LI BND       y_14       0
 UI BND       y_14       1
 LI BND       y_15       0
 UI BND       y_15       1
 LI BND       y_16       0
 UI BND       y_16       1
 LI BND       y_17       0
 UI BND       y_17       1
 LI BND       y_18       0
 UI BND       y_18       1
 LI BND       y_19       0
 UI BND       y_19       1
 LI BND       y_20       0
 UI BND       y_20       1
 LI BND       y_21       0
 UI BND       y_21       1
 LI BND       y_22       0
 UI BND       y_22       1
 LI BND       y_23       0
 UI BND       y_23       1
 LI BND       y_24       0
 UI BND       y_24       1
 LI BND       y_25       0
 UI BND       y_25       1
 LI BND       y_26       0
 UI BND       y_26       1
 LI BND       y_27       0
 UI BND       y_27       1
 LI BND       y_28       0
 UI BND       y_28       1
 LI BND       y_29       0
 UI BND       y_29       1
ENDATA
